(set-option :produce-models true)
(set-logic QF_UF)
(declare-fun p3() Bool)
(declare-fun p12() Bool)
(declare-fun p0() Bool)
(declare-fun p8() Bool)
(declare-fun p13() Bool)
(declare-fun p5() Bool)
(declare-fun p9() Bool)
(declare-fun p14() Bool)
(declare-fun p2() Bool)
(declare-fun p4() Bool)
(declare-fun p1() Bool)
(declare-fun p6() Bool)
(declare-fun p7() Bool)
(declare-fun p11() Bool)
(declare-fun p10() Bool)
(assert
(and (or p3 p12 p0) (or p8 (not p13) p5) (or p9 p14 p2) (or (not p4) (not p4) (not p1)) (or p1 (not p6) p3) (or (not p12) (not p6) p7) (or (not p11) (not p8) p8) (or p1 (not p10) (not p13)) (or (not p6) p11 p5) (or (not p14) p4 (not p4)) (or (not p1) p3 p3) (or (not p8) p9 p2) (or (not p6) (not p3) (not p14)) (or (not p2) (not p1) (not p14)) (or (not p12) (not p11) p14) (or (not p6) (not p10) p8) (or p8 (not p0) (not p12)) (or (not p3) (not p0) p9) (or (not p7) p7 p8) (or (not p10) (not p1) p5) (or p13 p9 p7) (or (not p1) p7 (not p7)) (or (not p1) (not p2) (not p6)) (or (not p7) (not p7) (not p6)) (or p13 (not p1) (not p14)) (or p10 p14 p1) (or p6 p0 (not p12)) (or (not p7) p10 (not p1)) (or (not p4) (not p8) p10) (or (not p6) (not p2) (not p5)) (or (not p8) p0 (not p3)) (or (not p14) (not p3) (not p3)) (or p10 (not p8) (not p13)) (or p12 p7 (not p8)) (or (not p2) (not p5) (not p8)) (or (not p5) (not p11) p10) (or (not p1) p8 (not p12)) (or p7 p7 p1) (or p14 p7 p12) (or p4 (not p13) (not p0)) (or p1 p1 (not p5)) (or p14 p0 p9) (or (not p8) p1 p10) (or (not p0) p14 (not p9)) (or p12 p11 (not p0)) (or p3 p4 (not p4)) (or p2 p13 (not p12)) (or p2 (not p12) p0) (or p3 p7 (not p5)) (or p3 (not p6) (not p2)) (or (not p14) p9 p12) (or p2 p0 p9) (or (not p11) (not p13) (not p3)) (or (not p0) p14 p1) (or (not p3) p11 (not p7)) (or p9 p8 (not p0)) (or p7 p11 p6) (or p8 p11 (not p7)) (or (not p10) p9 p1) (or (not p2) (not p6) p11) (or (not p1) p6 (not p2)) (or (not p14) (not p9) p14) (or p7 (not p2) (not p6)) (or p9 (not p13) (not p6)) (or (not p6) p3 (not p2)) (or (not p5) (not p3) (not p3)) (or p6 (not p13) (not p4)) (or (not p7) p7 p0) (or (not p5) (not p14) p9))
)
(check-sat)
(get-model)
